experiment/data/hgs-res/Vrp-Set-B-n44/Vrp-Set-B-n44-hgs/0.hgs1.vrp
NAME : 0
COMMENT : CVRP Instance
TYPE : CVRP
DIMENSION : 44
EDGE_WEIGHT_TYPE : EUC_2D
CAPACITY : 100
NODE_COORD_SECTION
1	35.0	31.0
2	77.0	13.0
3	95.0	51.0
4	91.0	15.0
5	65.0	93.0
6	51.0	17.0
7	41.0	57.0
8	39.0	39.0
9	70.0	102.0
10	74.0	94.0
11	81.0	97.0
12	77.0	95.0
13	84.0	14.0
14	48.0	60.0
15	98.0	54.0
16	92.0	18.0
17	42.0	42.0
18	52.0	18.0
19	44.0	42.0
20	48.0	44.0
21	80.0	22.0
22	42.0	58.0
23	73.0	105.0
24	81.0	101.0
25	102.0	58.0
26	82.0	18.0
27	96.0	58.0
28	98.0	18.0
29	84.0	16.0
30	44.0	44.0
31	73.0	103.0
32	96.0	16.0
33	46.0	48.0
34	92.0	16.0
35	44.0	64.0
36	98.0	22.0
37	96.0	52.0
38	46.0	64.0
39	77.0	103.0
40	104.0	54.0
41	58.0	20.0
42	46.0	64.0
43	73.0	103.0
44	94.0	16.0
DEMAND_SECTION
1	0
2	26
3	11
4	22
5	18
6	10
7	9
8	12
9	10
10	12
11	19
12	5
13	18
14	7
15	14
16	14
17	20
18	7
19	4
20	11
21	3
22	22
23	15
24	69
25	26
26	20
27	12
28	22
29	9
30	23
31	7
32	17
33	3
34	18
35	18
36	9
37	4
38	20
39	24
40	3
41	4
42	4
43	23
44	17
DEPOT_SECTION
1
-1
EOF
