experiment/data/hgs-res/Vrp-Set-B-n44/Vrp-Set-B-n44-hgs/0.hgs1.log
=========== Algorithm Parameters =================
---- nbGranular        is set to 20
---- mu                is set to 25
---- lambda            is set to 40
---- nbElite           is set to 4
---- nbClose           is set to 5
---- targetFeasible    is set to 0.2
---- seed              is set to 1234
---- nbIter            is set to 20000
---- timeLimit         is set to 0
---- useSwapStar       is set to 1
==================================================
----- READING INSTANCE: baseline_results/cvrp_hgs/Vrp-Set-B-n44/Vrp-Set-B-n44-hgs/0.hgs1.vrp
----- FLEET SIZE WAS NOT SPECIFIED: DEFAULT INITIALIZATION TO 12 VEHICLES
----- INSTANCE SUCCESSFULLY LOADED WITH 43 CLIENTS AND 12 VEHICLES
----- BUILDING INITIAL POPULATION
----- STARTING GENETIC ALGORITHM
It      0      2 | T(s) 0.08 | Feas 46 914.96 931.21 | Inf 60 867.32 875.01 | Div 0.25 0.22 | Feas 0.00 1.00 | Pen 1.60 0.85
It    500    502 | T(s) 0.24 | Feas 53 914.96 915.52 | Inf 65 874.73 875.92 | Div 0.12 0.13 | Feas 0.00 1.00 | Pen 3.99 0.38
It   1000   1002 | T(s) 0.38 | Feas 65 914.96 915.56 | Inf 58 880.53 881.95 | Div 0.12 0.14 | Feas 0.22 1.00 | Pen 6.89 0.17
It   1500   1502 | T(s) 0.54 | Feas 43 914.96 916.77 | Inf 44 880.53 882.58 | Div 0.19 0.19 | Feas 0.22 1.00 | Pen 6.89 0.10
It   2000   2002 | T(s) 0.68 | Feas 49 914.96 916.06 | Inf 29 880.81 884.97 | Div 0.15 0.28 | Feas 0.24 1.00 | Pen 7.02 0.10
It   2500   2502 | T(s) 0.83 | Feas 30 914.96 917.18 | Inf 51 881.09 882.41 | Div 0.22 0.15 | Feas 0.21 1.00 | Pen 7.16 0.10
It   3000   3002 | T(s) 0.97 | Feas 53 914.96 915.87 | Inf 59 878.94 880.66 | Div 0.15 0.15 | Feas 0.28 1.00 | Pen 6.09 0.10
It   3500   3502 | T(s) 1.12 | Feas 39 914.96 916.85 | Inf 38 877.11 879.42 | Div 0.19 0.20 | Feas 0.26 1.00 | Pen 5.18 0.10
It   4000   4002 | T(s) 1.27 | Feas 40 914.96 917.09 | Inf 40 879.18 881.13 | Div 0.20 0.19 | Feas 0.23 1.00 | Pen 6.21 0.10
It   4500   4502 | T(s) 1.41 | Feas 39 914.96 916.19 | Inf 31 879.18 883.07 | Div 0.17 0.25 | Feas 0.20 1.00 | Pen 6.21 0.10
It   5000   5002 | T(s) 1.56 | Feas 49 914.96 916.09 | Inf 26 879.68 885.10 | Div 0.16 0.31 | Feas 0.05 1.00 | Pen 6.46 0.10
It   5500   5502 | T(s) 1.70 | Feas 32 914.96 917.75 | Inf 31 879.94 883.33 | Div 0.22 0.25 | Feas 0.43 1.00 | Pen 6.59 0.10
It   6000   6002 | T(s) 1.85 | Feas 41 914.96 916.54 | Inf 62 880.48 881.76 | Div 0.18 0.14 | Feas 0.11 1.00 | Pen 6.86 0.10
It   6500   6502 | T(s) 2.00 | Feas 50 914.96 915.86 | Inf 61 880.75 882.50 | Div 0.14 0.15 | Feas 0.16 1.00 | Pen 7.00 0.10
It   7000   7002 | T(s) 2.15 | Feas 25 914.96 918.97 | Inf 43 878.89 881.36 | Div 0.26 0.20 | Feas 0.26 1.00 | Pen 6.06 0.10
It   7500   7502 | T(s) 2.30 | Feas 59 914.96 915.73 | Inf 28 878.89 882.27 | Div 0.13 0.25 | Feas 0.21 1.00 | Pen 6.06 0.10
It   8000   8002 | T(s) 2.44 | Feas 54 914.96 915.97 | Inf 54 877.07 878.77 | Div 0.15 0.17 | Feas 0.28 1.00 | Pen 5.16 0.10
It   8500   8502 | T(s) 2.59 | Feas 59 914.96 915.76 | Inf 57 879.38 880.81 | Div 0.13 0.14 | Feas 0.19 1.00 | Pen 6.31 0.10
It   9000   9002 | T(s) 2.73 | Feas 57 914.96 915.76 | Inf 52 879.63 882.25 | Div 0.14 0.20 | Feas 0.04 1.00 | Pen 6.44 0.10
It   9500   9502 | T(s) 2.88 | Feas 64 914.96 916.00 | Inf 50 879.89 882.35 | Div 0.15 0.20 | Feas 0.15 1.00 | Pen 6.56 0.10
It  10000  10002 | T(s) 3.03 | Feas 48 914.96 915.77 | Inf 45 880.15 881.88 | Div 0.14 0.17 | Feas 0.19 1.00 | Pen 6.70 0.10
It  10500  10502 | T(s) 3.18 | Feas 60 914.96 915.84 | Inf 40 880.15 882.44 | Div 0.14 0.20 | Feas 0.19 1.00 | Pen 6.70 0.10
It  11000  11002 | T(s) 3.32 | Feas 44 914.96 916.41 | Inf 54 880.42 881.74 | Div 0.17 0.15 | Feas 0.24 1.00 | Pen 6.83 0.10
It  11500  11502 | T(s) 3.47 | Feas 30 914.96 916.69 | Inf 44 880.42 882.02 | Div 0.19 0.15 | Feas 0.22 1.00 | Pen 6.83 0.10
It  12000  12002 | T(s) 3.62 | Feas 50 914.96 916.21 | Inf 40 880.69 883.68 | Div 0.16 0.21 | Feas 0.16 1.00 | Pen 6.97 0.10
It  12500  12502 | T(s) 3.77 | Feas 40 914.96 917.33 | Inf 63 880.69 882.43 | Div 0.22 0.16 | Feas 0.16 1.00 | Pen 6.97 0.10
It  13000  13002 | T(s) 3.92 | Feas 64 914.96 915.54 | Inf 39 880.97 883.39 | Div 0.11 0.21 | Feas 0.24 1.00 | Pen 7.11 0.10
It  13500  13502 | T(s) 4.07 | Feas 64 914.96 915.87 | Inf 48 878.84 881.16 | Div 0.14 0.20 | Feas 0.32 1.00 | Pen 6.04 0.10
It  14000  14002 | T(s) 4.21 | Feas 64 914.96 915.34 | Inf 46 879.33 881.13 | Div 0.11 0.17 | Feas 0.17 1.00 | Pen 6.28 0.10
It  14500  14502 | T(s) 4.36 | Feas 35 914.96 916.89 | Inf 35 879.33 880.99 | Div 0.20 0.17 | Feas 0.20 1.00 | Pen 6.28 0.10
It  15000  15002 | T(s) 4.50 | Feas 39 914.96 916.20 | Inf 57 879.58 881.29 | Div 0.17 0.16 | Feas 0.24 1.00 | Pen 6.41 0.10
It  15500  15502 | T(s) 4.64 | Feas 50 914.96 915.89 | Inf 32 879.84 882.57 | Div 0.15 0.22 | Feas 0.12 1.00 | Pen 6.54 0.10
It  16000  16002 | T(s) 4.79 | Feas 65 914.96 915.32 | Inf 49 880.10 882.33 | Div 0.10 0.19 | Feas 0.19 1.00 | Pen 6.67 0.10
It  16500  16502 | T(s) 4.94 | Feas 34 914.96 916.64 | Inf 43 880.36 882.82 | Div 0.19 0.21 | Feas 0.25 1.00 | Pen 6.80 0.10
It  17000  17002 | T(s) 5.08 | Feas 57 914.96 916.05 | Inf 62 878.55 880.01 | Div 0.15 0.15 | Feas 0.32 1.00 | Pen 5.90 0.10
It  17500  17502 | T(s) 5.23 | Feas 26 914.96 920.80 | Inf 43 878.79 881.18 | Div 0.31 0.21 | Feas 0.23 1.00 | Pen 6.02 0.10
It  18000  18002 | T(s) 5.38 | Feas 35 914.96 915.77 | Inf 34 879.03 882.41 | Div 0.14 0.23 | Feas 0.18 1.00 | Pen 6.14 0.10
It  18500  18502 | T(s) 5.53 | Feas 44 914.96 916.21 | Inf 25 879.28 884.44 | Div 0.17 0.30 | Feas 0.18 1.00 | Pen 6.26 0.10
It  19000  19002 | T(s) 5.67 | Feas 40 914.96 916.20 | Inf 65 879.53 881.27 | Div 0.17 0.16 | Feas 0.17 1.00 | Pen 6.38 0.10
It  19500  19502 | T(s) 5.81 | Feas 64 914.96 915.55 | Inf 40 879.78 883.78 | Div 0.12 0.24 | Feas 0.16 1.00 | Pen 6.51 0.10
----- GENETIC ALGORITHM FINISHED AFTER 20000 ITERATIONS. TIME SPENT: 5.96218
----- WRITING BEST SOLUTION IN : baseline_results/cvrp_hgs/Vrp-Set-B-n44/Vrp-Set-B-n44-hgs/0.hgs1.tour
