experiment/data/hgs-res/Vrp-Set-B-n44/Vrp-Set-B-n44-hgs/0.hgs1.tour
Route #1: 25 28 3 12 1 40
Route #2: 35 27 31 43 33 15 20
Route #3: 9 26 24 39 14 36 2 17 5
Route #4: 18 10 23 11 32
Route #5: 7 16 29
Route #6: 4 8 42 30 22 38
Route #7: 6 21 34 37 41 13 19
Cost 914.965
